%%% static parameters %%%
timespan = 1;
Fact = [2];
Distr1 = [5];
Distr2 = [10];
Clients_N = [120];
Demand_W = [15];
Lt0 = [4];
Lt1 = [4];
SS_ = [0.85];
DS_D = [5];
K = [200];
MA = [500];
%%% dynamic parameters %%%
lost_ratio_sales_ret_th = 0.02864083916066229;
lost_ratio_sales_ret_w = 38;
lost_ratio_sales_dis_th = 0.5343799802761782;
lost_ratio_sales_dis_w = 67;
lost_ratio_sales_fac_th = 0.7103517698336735;
lost_ratio_sales_fac_w = 10;
stock_customer_MA_mean_relative_th = 0.4248074944075041;
stock_customer_MA_mean_relative_w = 10;
stock_distributor_MA_mean_relative_th = 0.34331513530153424;
stock_distributor_MA_mean_relative_w = 17;
stock_retailer_MA_mean_relative_th = 0.3945652601049372;
stock_retailer_MA_mean_relative_w = 43;
stock_factory_MA_mean_relative_th = 6.7602907097841225e-06;
stock_factory_MA_mean_relative_w = 23;
